CMD:
./solvers/bin/cadical --plain --no-reduce -t 1600 ./data/cnfs//cal21/cal21.83.cnf

c --- [ banner ] -------------------------------------------------------------
c 
c CaDiCaL SAT Solver
c Copyright (c) 2016-2024
c A. Biere, M. Fleury, N. Froleyks, K. Fazekas, F. Pollitt, T. Faller
c JKU Linz, University of Freiburg, TU Wien
c 
c Version 2.1.3 5296d3d2a9bf48c154ab2acb5e44625776d821bf
c g++ (Gentoo 12.3.1_p20230526 p2) 12.3.1 20230526 -Wall -Wextra -O3 -DNDEBUG
c Sat Aug 9 07:26:21 PDT 2025 Linux cedar2.int.cedar.computecanada.ca 5.14.0-362.24.2.el9_3.x86_64 x86_64
c 
c --- [ limit ] --------------------------------------------------------------
c 
c setting time limit to 1600 seconds real time (due to '-t 1600')
c 
c --- [ parsing input ] ------------------------------------------------------
c 
c reading DIMACS file from './data/cnfs//cal21/cal21.83.cnf'
c opening file to read './data/cnfs//cal21/cal21.83.cnf'
c found 'p cnf 66554 185497' header
c parsed 185497 clauses in 0.04 seconds process time
c 
c --- [ options ] ------------------------------------------------------------
c 
c   --compact=false                (different from default 'true')
c   --decompose=false              (different from default 'true')
c   --deduplicate=false            (different from default 'true')
c   --elim=false                   (different from default 'true')
c   --probe=false                  (different from default 'true')
c   --reduce=false                 (different from default 'true')
c   --subsume=false                (different from default 'true')
c   --ternary=false                (different from default 'true')
c   --transred=false               (different from default 'true')
c   --vivify=false                 (different from default 'true')
c 
c --- [ solving ] ------------------------------------------------------------
c 
c time measured in process time since initialization
c 
c  seconds  reductions  redundant  irredundant
c         MB    restarts       trail       variables
c          level   conflicts       glue         remaining
c 
c *  0.04 31  0 0   0    0    0  0% 0 170697 62817 94%
c {  0.04 31  0 0   0    0    0  0% 0 170697 62817 94%
c i  0.04 32  3 0   0    2    1  6% 0 170697 62797 94%
c i  0.04 32 11 0   0    6    4  6% 1 170697 62796 94%
c }  0.10 32 1378 0   0 1000  940 40% 2 170697 62796 94%
c [  0.10 32  0 0   0 1000  940  0% 0 170697 62796 94%
c O  0.10 32 1420 0   0 1002  941 41% 3 170697 62796 94%
c i  0.15 33 2423 0   1 2134 1989 57% 4 170697 62795 94%
c i  0.16 33 2732 0   1 2294 2136 62% 4 170697 62794 94%
c ]  0.18 33 2704 0   1 3000 2787 62% 5 170697 62794 94%
c {  0.18 33 1378 0   1 3000 2787 40% 2 170697 62794 94%
c F  0.19 33 1374 0   1 3011 2794 40% 2 170697 62794 94%
c i  0.20 33 1292 0  18 3088 2862 38% 2 170697 62776 94%
c i  0.20 33 1265 0  24 3114 2876 38% 2 170697 62768 94%
c i  0.22 33 965 0 118 3498 3223 31% 2 170697 62756 94%
c i  0.23 33 932 0 133 3555 3274 30% 2 170697 62742 94%
c i  0.23 33 897 0 150 3620 3331 29% 2 170697 62730 94%
c i  0.25 33 769 0 216 3942 3605 26% 3 170697 62721 94%
c i  0.26 33 701 0 259 4134 3781 25% 3 170697 62712 94%
c i  0.29 33 578 0 387 4631 4229 22% 3 170697 62710 94%
c 
c  seconds   reductions  redundant  irredundant
c         MB     restarts       trail       variables
c           level   conflicts       glue         remaining
c 
c i  0.31 33 520 0 457 4951 4530 21% 3 170697 62700 94%
c i  0.33 33 462 0 551 5377 4907 20% 3 170697 62687 94%
c i  0.33 33 461 0 552 5384 4911 20% 3 170697 62667 94%
c #  0.38 34 397 0 703 6012 5484 18% 4 170697 62667 94%
c i  0.38 34 391 0 721 6080 5545 18% 4 170697 62656 94%
c }  0.44 34 347 0 807 7005 6372 19% 4 170697 62656 94%
c [  0.44 34 2704 0 807 7005 6372 62% 5 170697 62656 94%
c i  0.46 34 2341 0 808 7362 6713 57% 5 170697 62649 94%
c I  0.63 35 1377 0 809 10013 9194 50% 8 170697 62647 94%
c ]  0.97 36 858 0 812 15005 13641 43% 12 170697 62647 94%
c {  0.97 36 347 0 812 15005 13641 19% 4 170697 62647 94%
c B  0.97 36 346 0 816 15016 13650 19% 4 170697 62647 94%
c i  0.97 36 346 0 816 15016 13650 19% 4 170697 62623 94%
c i  1.08 37 296 0 1056 16136 14682 18% 4 170697 62616 94%
c i  1.17 37 265 0 1270 16994 15470 17% 4 170697 62615 94%
c i  1.18 37 259 0 1310 17165 15622 17% 5 170697 62572 94%
c i  1.24 37 239 0 1454 17959 16321 17% 5 170697 62563 94%
c i  1.32 37 219 0 1583 19183 17435 17% 5 170697 62561 94%
c i  1.37 37 215 0 1638 20068 18233 18% 5 170697 62520 94%
c W  1.50 38 204 0 1739 21017 18296 18% 5 165680 62520 94%
c 
c  seconds   reductions     redundant  irredundant
c         MB     restarts          trail       variables
c           level     conflicts        glue         remaining
c 
c i  1.68 38 238 0 1844 23894 20820 21% 5 165680 62519 94%
c i  1.81 38 225 0 2036 25676 22433 21% 5 165680 62518 94%
c i  1.88 38 215 0 2102 27069 23688 21% 5 165680 62505 94%
c F  1.98 38 207 0 2270 28018 24562 20% 5 165680 62505 94%
... skipped 192 lines ...
c  seconds    reductions         redundant    irredundant
c           MB     restarts              trail        variables
c            level       conflicts           glue          remaining
c 
c i 582.83 502 39 0 51715 1293241 1129163 26% 10 159923 60809 91%
c i 583.51 502 38 0 51757 1295515 1131146 26% 10 159923 60808 91%
c i 605.09 503 38 0 53148 1318771 1151888 26% 10 159923 60796 91%
c # 611.92 503 38 0 53511 1326111 1158480 26% 10 159923 60796 91%
c i 627.52 503 36 0 54734 1339720 1170838 26% 10 159923 60795 91%
c i 657.11 503 35 0 56330 1372480 1200047 25% 9 159923 60776 91%
c B 662.37 503 35 0 56695 1378112 1205202 25% 9 159923 60776 91%
c i 669.32 503 35 0 57153 1387323 1213599 25% 9 159923 60763 91%
c i 675.19 503 36 0 57512 1394301 1219921 25% 9 159923 60753 91%
c i 675.20 503 36 0 57512 1394305 1219923 25% 9 159923 60725 91%
c i 679.39 504 35 0 57654 1402806 1227420 26% 9 159923 60404 91%
c i 684.29 504 35 0 57961 1410553 1234314 26% 9 159923 60391 91%
c i 685.27 504 35 0 58027 1412398 1236029 26% 9 159923 60390 91%
c W 696.10 475 36 0 58895 1431114 1006659 26% 9 158752 60390 91%
c i 698.49 475 35 0 59066 1437530 1012338 26% 9 158752 60372 91%
c i 700.41 475 35 0 59188 1442081 1016477 26% 9 158752 60371 91%
c i 702.18 475 35 0 59299 1447235 1021254 26% 9 158752 60355 91%
c i 703.87 475 35 0 59409 1452376 1025712 26% 9 158752 60278 91%
c i 704.50 475 34 0 59450 1454176 1027380 26% 9 158752 60275 91%
c i 705.81 475 34 0 59573 1456929 1029888 26% 9 158752 60274 91%
c 
c  seconds    reductions         redundant   irredundant
c           MB     restarts              trail       variables
c            level       conflicts           glue         remaining
c 
c i 708.03 475 34 0 59710 1463149 1035471 26% 9 158752 60181 90%
c i 708.26 475 34 0 59726 1463671 1035949 26% 9 158752 60107 90%
c i 709.36 475 34 0 59856 1466077 1038105 26% 9 158752 60086 90%
c i 713.28 475 34 0 60329 1476579 1047575 26% 9 158752 60066 90%
c i 716.40 475 34 0 60744 1484931 1054979 26% 9 158752 60065 90%
c F 716.47 475 34 0 60759 1485116 1055153 26% 9 158752 60065 90%
c i 720.70 475 32 0 61050 1497341 1066115 27% 8 158752 59923 90%
c i 720.90 475 32 0 61053 1498023 1066650 27% 8 158752 59871 90%
c i 721.23 475 32 0 61107 1498448 1066998 27% 8 158752 59073 89%
c i 721.41 475 32 0 61145 1498652 1067183 27% 8 158752 59004 89%
c i 725.97 475 32 0 62041 1512990 1079528 28% 8 158752 58743 88%
c i 725.98 475 32 0 62041 1513035 1079554 28% 8 158752 58725 88%
c i 726.09 475 32 0 62049 1513320 1079766 28% 8 158752 47086 71%
c i 726.10 475 32 0 62049 1513342 1079780 28% 8 158752 47056 71%
c i 726.10 475 32 0 62049 1513367 1079791 28% 8 158752 47018 71%
c } 726.11 475 32 0 62049 1513404 1079802 28% 8 158752 46495 70%
c 0 726.11 475 32 0 62049 1513404 1079802 28% 8 158752 46495 70%
c 
c --- [ result ] -------------------------------------------------------------
c 
s UNSATISFIABLE
c 
c --- [ run-time profiling ] -------------------------------------------------
c 
c process time taken by individual solving procedures
c (percentage relative to process time for solving)
c 
c       726.07  100.00% search
c       526.85   72.56% unstable
c       195.78   26.96% stable
c         3.44    0.47% walk
c         0.04    0.00% parse
c         0.00    0.00% lucky
c         0.00    0.00% simplify
c   =================================
c       726.07  100.00% solve
c 
c last line shows process time for solving
c (percentage relative to total process time)
c 
c --- [ statistics ] ---------------------------------------------------------
c 
c chronological:            477755        31.57 %  of conflicts
c conflicts:               1513404      2084.37    per second
c decisions:               5271708      7260.60    per second
c fixed:                     20058        30.14 %  of all variables
c learned:                 1468397        97.03 %  per conflict
c learned_lits:          135582017       100.00 %  learned literals
c minimized:                     0         0.00 %  learned literals
c shrunken:               25463153        18.78 %  learned literals
c minishrunken:           44119545        32.54 %  learned literals
c otfs:                       5396         0.36 %  of conflict
c propagations:         1988467197         2.74 M  per second
c rephased:                     54     28026.00    interval
c restarts:                  62049        24.39    interval
c stabilizing:                   5        45.06 %  of conflicts
c subsumed:                  88187         5.38 %  of all clauses
c strengthened:               5296         0.32 %  of all clauses
c walked:                       17     89023.76    interval
c 
c seconds are measured in process time for solving
c 
c --- [ resources ] ----------------------------------------------------------
c 
c total process time since initialization:       726.11    seconds
c total real time since initialization:          922.15    seconds
c maximum resident set size of process:          721.85    MB
c 
c --- [ shutting down ] ------------------------------------------------------
c 
c exit 20
